language ESSENCE' 1.0

letting n_boats be 13
letting n_periods be 5
letting crew_Function1D be [2, 2, 2, 2, 4, 4, 4, 1, 2, 2, 2, 3, 4; int(1..13)]
letting capacity_Function1D be [6, 8, 12, 12, 12, 12, 12, 10, 10, 10, 10, 10, 8; int(1..13)]
letting fin1 be 13
letting fin2 be 12
letting fin3 be 13
letting fin4 be 4
